\ Model Routes
\ LP format - for model browsing. Use MPS format to capture full model detail.
Maximize
  - 191.7153353028244 R{0,0} + 623.2046552982704 R{0,1}
   + 623.2046552982704 R{0,2} - 249.2301939667805 R{0,3}
   + 234.7650315204939 R{0,4} + 397.2891588355392 R{0,5}
   + 116.5712220500383 R{0,6} + 163.9197735754843 R{0,7}
   + 116.5712220500383 R{0,8} + 852.3918860260821 R{0,9}
   + 314.8939085948027 R{0,10} + 1115.872837691457 R{0,11}
   + 325.5703522833678 R{0,12} + 422.1333865191161 R{0,13}
   + 355.2498675530766 R{0,14} + 368.3846205900942 R{0,15}
   + 639.481601157141 R{0,16} + 414.1299051973276 R{0,17}
   + 441.5192965304232 R{0,18} + 347.6593963495008 R{0,19}
   + 1107.869356369669 R{0,20} + 325.5703522833678 R{0,21}
   + 540.8101199965593 R{0,22} - 256.140831891889 R{1,0}
   - 58.16416216887956 R{1,1} + 669.0062570112706 R{1,2}
   + 1101.262417598721 R{1,3} + 1336.327996470682 R{1,4}
   + 1049.137642243191 R{1,5} + 1049.137642243191 R{1,6}
   + 896.6151712232495 R{1,7} + 896.6151712232495 R{1,8}
   + 862.0699957917122 R{1,9} + 350.1605932839503 R{1,10}
   + 896.6151712232495 R{1,11} + 1055.191759281265 R{1,12}
   + 1055.191759281265 R{1,13} + 1796.85738751611 R{1,14}
   + 627.253750726475 R{1,15} + 862.0699957917122 R{1,16}
   + 991.1419323979123 R{1,17} + 113.0626312224127 R{1,18}
   + 653.2188619780368 R{1,19} + 862.0699957917122 R{1,20}
   + 466.1512155265586 R{1,21} + 1606.850437417895 R{1,22}
   + 1683.641550202186 R{1,23} + 2182.445040348421 R{1,24}
   + 1198.881248318718 R{2,0} + 1198.881248318718 R{2,1}
   - 278.4443928850388 R{2,2} - 59.13410337035452 R{2,3}
   + 602.7748664658451 R{2,4} + 1100.505917706273 R{2,5}
   + 774.166852893441 R{2,6} + 591.0325885092791 R{2,7}
   + 661.1183809175574 R{2,8} + 774.166852893441 R{2,9}
   + 774.166852893441 R{2,10} + 300.52075841901 R{2,11}
   + 854.1443356614866 R{2,12} + 798.1486856681477 R{2,13}
   + 947.5724883564153 R{2,14} + 854.1443356614866 R{2,15}
   + 591.0325885092791 R{2,16} + 1223.373897410434 R{2,17}
   + 992.2574420845674 R{2,18} + 850.7767431229745 R{2,19}
   + 729.1456949323599 R{2,20} + 612.6274307492583 R{2,21}
   - 260.2482995389823 R{3,0} + 681.6721973521264 R{3,1}
   + 1049.613160618656 R{3,2} + 1410.615877888776 R{3,3}
   + 1154.227528520744 R{3,4} + 1149.117622664528 R{3,5}
   + 819.2139121677185 R{3,6} + 964.1633044049054 R{3,7}
   + 1422.035425713148 R{3,8} + 1586.797047083423 R{3,9}
   + 276.4796889660195 R{3,10} + 793.9662190002055 R{3,11}
   + 253.2373630497539 R{3,12} + 763.6122942567908 R{3,13}
   + 249.6940045634499 R{3,14} + 2248.479068144405 R{3,15}
   + 1171.186107351596 R{3,16} + 261.4024590525545 R{3,17}
   + 289.7817574117911 R{3,18} + 837.4111751417938 R{3,19}
   + 124.8498573813787 R{3,20} + 1273.17145177258 R{3,21}
   + 1151.036770452637 R{3,22} + 1817.22814255111 R{3,23}
   + 2147.364751223111 R{3,24} + 1085.506815234044 R{3,25}
   + 1085.111772319501 R{3,26} + 2476.272292853934 R{3,27}
   + 938.7826315795967 R{3,28} + 2017.750008225255 R{3,29}
   + 1619.946529808708 R{3,30} - 242.5208875955131 R{4,0}
   + 862.1744748373853 R{4,1} + 1576.196574514046 R{4,2}
   + 886.3566362229485 R{4,3} + 525.1036969194101 R{4,4}
   + 1368.44612443406 R{4,5} + 915.8418076307562 R{4,6}
   + 510.7227689333903 R{4,7} + 1287.46874394222 R{4,8}
   + 972.0255855585822 R{4,9} + 900.7375642089685 R{4,10}
   + 753.565088328544 R{4,11} + 1947.24694348554 R{4,12}
   + 510.7227689333903 R{4,13} + 1944.127496333137 R{4,14}
   + 1377.030446983398 R{4,15} + 2042.219939247213 R{4,16}
   + 685.608374838385 R{4,17} + 1323.156079423433 R{4,18}
   + 309.9745075488266 R{4,19} + 292.2622717033519 R{4,20}
   + 815.2022797319507 R{4,21} + 671.0155861453135 R{4,22}
   + 913.7819345145895 R{4,23} + 581.8101533553017 R{4,24}
   + 1271.825306818988 R{4,25} + 671.0155861453135 R{4,26}
   + 2000.002364708962 R{4,27} + 1217.115182904724 R{4,28}
   + 1049.290819891792 R{4,29} + 581.2874748472361 R{4,30}
   + 1853.555191198721 R{4,31} + 1200.203188946694 R{4,32}
   + 348.446049631178 R{4,33} + 810.5224901937964 R{4,34}
   + 723.9586041387831 R{4,35} + 1007.36694775873 R{4,36}
   + 1470.700535331142 R{4,37} + 1370.332686984601 R{4,38}
   + 1244.564400252482 R{4,39} + 902.0289648200419 R{4,40}
   + 2062.475311549706 R{4,41} + 885.3710941101285 R{4,42}
   + 1394.620273913852 R{4,43} - 231.9775664337766 R{5,0}
   + 40.49903117334031 R{5,1} + 364.0546919427258 R{5,2}
   + 257.1153493468094 R{5,3} + 512.955772105737 R{5,4}
   + 241.272954846214 R{5,5} + 194.0410633647359 R{5,6}
   + 426.7232453713668 R{5,7} + 465.3154427967688 R{5,8}
   + 717.9255183604502 R{5,9} + 309.7346876127393 R{5,10}
   + 34.92991611761838 R{5,11} + 623.4997969792806 R{5,12}
   + 245.9188385174178 R{5,13} + 380.4290695552238 R{5,14}
   + 537.9505456435872 R{5,15} + 917.957735377908 R{5,16}
   + 873.1379195771747 R{5,17} + 693.9152474273533 R{5,18}
   - 231.1436095783099 R{6,0} + 352.5135528432641 R{6,1}
   + 1376.623169502638 R{6,2} + 1941.768530245978 R{6,3}
   + 435.2163963367263 R{6,4} + 1457.664370856685 R{6,5}
   + 434.4343940262086 R{6,6} + 405.3691061466382 R{6,7}
   + 1422.05551209532 R{6,8} + 1538.108169311409 R{6,9}
   + 1133.209529287382 R{6,10} + 405.3691061466382 R{6,11}
   + 1187.891277106856 R{6,12} + 1034.324236670363 R{6,13}
   + 1537.326167000891 R{6,14} + 1195.082560118109 R{6,15}
   + 1563.165514526115 R{6,16} + 1118.801845592666 R{6,17}
   + 405.3691061466382 R{6,18} + 406.1511084571559 R{6,19}
   + 1136.867852431804 R{6,20} + 1569.481728302127 R{6,21}
   + 709.1349003507967 R{6,22} + 406.1511084571559 R{6,23}
   + 435.2163963367263 R{6,24} + 405.3691061466382 R{6,25}
   + 708.3528980402789 R{6,26} + 601.5489022055131 R{6,27}
   + 1389.776439947904 R{6,28} + 1445.558223835888 R{6,29}
   + 1948.323038247594 R{6,30} + 963.8298113638614 R{6,31}
   + 1560.86292916739 R{6,32} + 1947.541035937076 R{6,33}
   + 1445.558223835888 R{6,34} + 1674.592877762989 R{6,35}
   + 1965.424671449966 R{6,36} + 912.4033836410238 R{6,37}
   + 1420.757925192046 R{6,38} + 1184.7046943157 R{6,39}
Subject To
 R00: R{0,0} <= 1
 R01: R{0,1} <= 1
 R02: R{0,2} <= 1
 R03: R{0,3} <= 1
 R04: R{0,4} <= 1
 R05: R{0,5} <= 1
 R06: R{0,6} <= 1
 R07: R{0,7} <= 1
 R08: R{0,8} <= 1
 R09: R{0,9} <= 1
 R010: R{0,10} <= 1
 R011: R{0,11} <= 1
 R012: R{0,12} <= 1
 R013: R{0,13} <= 1
 R014: R{0,14} <= 1
 R015: R{0,15} <= 1
 R016: R{0,16} <= 1
 R017: R{0,17} <= 1
 R018: R{0,18} <= 1
 R019: R{0,19} <= 1
 R020: R{0,20} <= 1
 R021: R{0,21} <= 1
 R022: R{0,22} <= 1
 R023: R{1,0} <= 1
 R024: R{1,1} <= 1
 R025: R{1,2} <= 1
 R026: R{1,3} <= 1
 R027: R{1,4} <= 1
 R028: R{1,5} <= 1
 R029: R{1,6} <= 1
 R030: R{1,7} <= 1
 R031: R{1,8} <= 1
 R032: R{1,9} <= 1
 R033: R{1,10} <= 1
 R034: R{1,11} <= 1
 R035: R{1,12} <= 1
 R036: R{1,13} <= 1
 R037: R{1,14} <= 1
 R038: R{1,15} <= 1
 R039: R{1,16} <= 1
 R040: R{1,17} <= 1
 R041: R{1,18} <= 1
 R042: R{1,19} <= 1
 R043: R{1,20} <= 1
 R044: R{1,21} <= 1
 R045: R{1,22} <= 1
 R046: R{1,23} <= 1
 R047: R{1,24} <= 1
 R048: R{2,0} <= 1
 R049: R{2,1} <= 1
 R050: R{2,2} <= 1
 R051: R{2,3} <= 1
 R052: R{2,4} <= 1
 R053: R{2,5} <= 1
 R054: R{2,6} <= 1
 R055: R{2,7} <= 1
 R056: R{2,8} <= 1
 R057: R{2,9} <= 1
 R058: R{2,10} <= 1
 R059: R{2,11} <= 1
 R060: R{2,12} <= 1
 R061: R{2,13} <= 1
 R062: R{2,14} <= 1
 R063: R{2,15} <= 1
 R064: R{2,16} <= 1
 R065: R{2,17} <= 1
 R066: R{2,18} <= 1
 R067: R{2,19} <= 1
 R068: R{2,20} <= 1
 R069: R{2,21} <= 1
 R070: R{3,0} <= 1
 R071: R{3,1} <= 1
 R072: R{3,2} <= 1
 R073: R{3,3} <= 1
 R074: R{3,4} <= 1
 R075: R{3,5} <= 1
 R076: R{3,6} <= 1
 R077: R{3,7} <= 1
 R078: R{3,8} <= 1
 R079: R{3,9} <= 1
 R080: R{3,10} <= 1
 R081: R{3,11} <= 1
 R082: R{3,12} <= 1
 R083: R{3,13} <= 1
 R084: R{3,14} <= 1
 R085: R{3,15} <= 1
 R086: R{3,16} <= 1
 R087: R{3,17} <= 1
 R088: R{3,18} <= 1
 R089: R{3,19} <= 1
 R090: R{3,20} <= 1
 R091: R{3,21} <= 1
 R092: R{3,22} <= 1
 R093: R{3,23} <= 1
 R094: R{3,24} <= 1
 R095: R{3,25} <= 1
 R096: R{3,26} <= 1
 R097: R{3,27} <= 1
 R098: R{3,28} <= 1
 R099: R{3,29} <= 1
 R0100: R{3,30} <= 1
 R0101: R{4,0} <= 1
 R0102: R{4,1} <= 1
 R0103: R{4,2} <= 1
 R0104: R{4,3} <= 1
 R0105: R{4,4} <= 1
 R0106: R{4,5} <= 1
 R0107: R{4,6} <= 1
 R0108: R{4,7} <= 1
 R0109: R{4,8} <= 1
 R0110: R{4,9} <= 1
 R0111: R{4,10} <= 1
 R0112: R{4,11} <= 1
 R0113: R{4,12} <= 1
 R0114: R{4,13} <= 1
 R0115: R{4,14} <= 1
 R0116: R{4,15} <= 1
 R0117: R{4,16} <= 1
 R0118: R{4,17} <= 1
 R0119: R{4,18} <= 1
 R0120: R{4,19} <= 1
 R0121: R{4,20} <= 1
 R0122: R{4,21} <= 1
 R0123: R{4,22} <= 1
 R0124: R{4,23} <= 1
 R0125: R{4,24} <= 1
 R0126: R{4,25} <= 1
 R0127: R{4,26} <= 1
 R0128: R{4,27} <= 1
 R0129: R{4,28} <= 1
 R0130: R{4,29} <= 1
 R0131: R{4,30} <= 1
 R0132: R{4,31} <= 1
 R0133: R{4,32} <= 1
 R0134: R{4,33} <= 1
 R0135: R{4,34} <= 1
 R0136: R{4,35} <= 1
 R0137: R{4,36} <= 1
 R0138: R{4,37} <= 1
 R0139: R{4,38} <= 1
 R0140: R{4,39} <= 1
 R0141: R{4,40} <= 1
 R0142: R{4,41} <= 1
 R0143: R{4,42} <= 1
 R0144: R{4,43} <= 1
 R0145: R{5,0} <= 1
 R0146: R{5,1} <= 1
 R0147: R{5,2} <= 1
 R0148: R{5,3} <= 1
 R0149: R{5,4} <= 1
 R0150: R{5,5} <= 1
 R0151: R{5,6} <= 1
 R0152: R{5,7} <= 1
 R0153: R{5,8} <= 1
 R0154: R{5,9} <= 1
 R0155: R{5,10} <= 1
 R0156: R{5,11} <= 1
 R0157: R{5,12} <= 1
 R0158: R{5,13} <= 1
 R0159: R{5,14} <= 1
 R0160: R{5,15} <= 1
 R0161: R{5,16} <= 1
 R0162: R{5,17} <= 1
 R0163: R{5,18} <= 1
 R0164: R{6,0} <= 1
 R0165: R{6,1} <= 1
 R0166: R{6,2} <= 1
 R0167: R{6,3} <= 1
 R0168: R{6,4} <= 1
 R0169: R{6,5} <= 1
 R0170: R{6,6} <= 1
 R0171: R{6,7} <= 1
 R0172: R{6,8} <= 1
 R0173: R{6,9} <= 1
 R0174: R{6,10} <= 1
 R0175: R{6,11} <= 1
 R0176: R{6,12} <= 1
 R0177: R{6,13} <= 1
 R0178: R{6,14} <= 1
 R0179: R{6,15} <= 1
 R0180: R{6,16} <= 1
 R0181: R{6,17} <= 1
 R0182: R{6,18} <= 1
 R0183: R{6,19} <= 1
 R0184: R{6,20} <= 1
 R0185: R{6,21} <= 1
 R0186: R{6,22} <= 1
 R0187: R{6,23} <= 1
 R0188: R{6,24} <= 1
 R0189: R{6,25} <= 1
 R0190: R{6,26} <= 1
 R0191: R{6,27} <= 1
 R0192: R{6,28} <= 1
 R0193: R{6,29} <= 1
 R0194: R{6,30} <= 1
 R0195: R{6,31} <= 1
 R0196: R{6,32} <= 1
 R0197: R{6,33} <= 1
 R0198: R{6,34} <= 1
 R0199: R{6,35} <= 1
 R0200: R{6,36} <= 1
 R0201: R{6,37} <= 1
 R0202: R{6,38} <= 1
 R0203: R{6,39} <= 1
 R1_0: R{0,0} + R{0,1} + R{0,2} + R{0,3} + R{0,4} + R{0,5} + R{0,6}
   + R{0,7} + R{0,8} + R{0,9} + R{0,10} + R{0,11} + R{0,12} + R{0,13}
   + R{0,14} + R{0,15} + R{0,16} + R{0,17} + R{0,18} + R{0,19} + R{0,20}
   + R{0,21} + R{0,22} <= 1
 R1_1: R{1,0} + R{1,1} + R{1,2} + R{1,3} + R{1,4} + R{1,5} + R{1,6}
   + R{1,7} + R{1,8} + R{1,9} + R{1,10} + R{1,11} + R{1,12} + R{1,13}
   + R{1,14} + R{1,15} + R{1,16} + R{1,17} + R{1,18} + R{1,19} + R{1,20}
   + R{1,21} + R{1,22} + R{1,23} + R{1,24} <= 1
 R1_2: R{2,0} + R{2,1} + R{2,2} + R{2,3} + R{2,4} + R{2,5} + R{2,6}
   + R{2,7} + R{2,8} + R{2,9} + R{2,10} + R{2,11} + R{2,12} + R{2,13}
   + R{2,14} + R{2,15} + R{2,16} + R{2,17} + R{2,18} + R{2,19} + R{2,20}
   + R{2,21} <= 1
 R1_3: R{3,0} + R{3,1} + R{3,2} + R{3,3} + R{3,4} + R{3,5} + R{3,6}
   + R{3,7} + R{3,8} + R{3,9} + R{3,10} + R{3,11} + R{3,12} + R{3,13}
   + R{3,14} + R{3,15} + R{3,16} + R{3,17} + R{3,18} + R{3,19} + R{3,20}
   + R{3,21} + R{3,22} + R{3,23} + R{3,24} + R{3,25} + R{3,26} + R{3,27}
   + R{3,28} + R{3,29} + R{3,30} <= 1
 R1_4: R{4,0} + R{4,1} + R{4,2} + R{4,3} + R{4,4} + R{4,5} + R{4,6}
   + R{4,7} + R{4,8} + R{4,9} + R{4,10} + R{4,11} + R{4,12} + R{4,13}
   + R{4,14} + R{4,15} + R{4,16} + R{4,17} + R{4,18} + R{4,19} + R{4,20}
   + R{4,21} + R{4,22} + R{4,23} + R{4,24} + R{4,25} + R{4,26} + R{4,27}
   + R{4,28} + R{4,29} + R{4,30} + R{4,31} + R{4,32} + R{4,33} + R{4,34}
   + R{4,35} + R{4,36} + R{4,37} + R{4,38} + R{4,39} + R{4,40} + R{4,41}
   + R{4,42} + R{4,43} <= 1
 R1_5: R{5,0} + R{5,1} + R{5,2} + R{5,3} + R{5,4} + R{5,5} + R{5,6}
   + R{5,7} + R{5,8} + R{5,9} + R{5,10} + R{5,11} + R{5,12} + R{5,13}
   + R{5,14} + R{5,15} + R{5,16} + R{5,17} + R{5,18} <= 1
 R1_6: R{6,0} + R{6,1} + R{6,2} + R{6,3} + R{6,4} + R{6,5} + R{6,6}
   + R{6,7} + R{6,8} + R{6,9} + R{6,10} + R{6,11} + R{6,12} + R{6,13}
   + R{6,14} + R{6,15} + R{6,16} + R{6,17} + R{6,18} + R{6,19} + R{6,20}
   + R{6,21} + R{6,22} + R{6,23} + R{6,24} + R{6,25} + R{6,26} + R{6,27}
   + R{6,28} + R{6,29} + R{6,30} + R{6,31} + R{6,32} + R{6,33} + R{6,34}
   + R{6,35} + R{6,36} + R{6,37} + R{6,38} + R{6,39} <= 1
 R2_0: 7 R{1,24} + 7 R{2,18} + 7 R{2,20} + 7 R{3,27} + 7 R{6,39} <= 7
 R2_1: 10 R{0,13} + 10 R{0,17} + 10 R{1,14} + 10 R{1,17} + 10 R{2,19}
   + 10 R{3,1} + 10 R{3,2} + 10 R{3,3} + 10 R{3,4} + 10 R{3,5} + 10 R{3,7}
   + 10 R{3,8} + 10 R{3,9} + 10 R{3,11} + 10 R{3,13} + 10 R{3,15}
   + 10 R{3,21} + 10 R{3,23} + 10 R{3,24} + 10 R{3,25} + 10 R{3,26}
   + 10 R{3,27} + 10 R{4,29} + 10 R{4,38} + 10 R{6,35} <= 10
 R2_2: <= 0
 R2_3: 4 R{0,22} + 4 R{5,1} + 4 R{5,2} + 4 R{5,3} + 4 R{5,4} + 4 R{5,5}
   + 4 R{5,7} + 4 R{5,8} + 4 R{5,10} + 4 R{5,13} + 4 R{5,14} + 4 R{5,15}
   + 4 R{5,16} + 4 R{5,17} + 4 R{5,18} <= 4
 R2_4: <= 0
 R2_5: 5 R{5,1} + 5 R{5,2} + 5 R{5,3} + 5 R{5,4} + 5 R{5,6} + 5 R{5,7}
   + 5 R{5,9} + 5 R{5,10} + 5 R{5,11} + 5 R{5,12} + 5 R{5,14} + 5 R{5,16}
   + 5 R{5,18} <= 5
 R2_6: 10 R{0,19} + 10 R{3,30} + 10 R{5,9} + 10 R{5,12} + 10 R{6,1}
   + 10 R{6,2} + 10 R{6,3} + 10 R{6,4} + 10 R{6,5} + 10 R{6,6} + 10 R{6,7}
   + 10 R{6,8} + 10 R{6,9} + 10 R{6,11} + 10 R{6,14} + 10 R{6,15}
   + 10 R{6,16} + 10 R{6,18} + 10 R{6,19} + 10 R{6,20} + 10 R{6,21}
   + 10 R{6,22} + 10 R{6,23} + 10 R{6,24} + 10 R{6,25} + 10 R{6,26}
   + 10 R{6,27} + 10 R{6,28} + 10 R{6,29} + 10 R{6,30} + 10 R{6,31}
   + 10 R{6,32} + 10 R{6,33} + 10 R{6,34} + 10 R{6,35} + 10 R{6,36}
   + 10 R{6,38} <= 10
 R2_7: <= 0
 R2_8: <= 0
 R2_9: 12 R{3,27} + 12 R{4,1} + 12 R{4,2} + 12 R{4,3} + 12 R{4,4}
   + 12 R{4,5} + 12 R{4,6} + 12 R{4,7} + 12 R{4,8} + 12 R{4,9} + 12 R{4,10}
   + 12 R{4,11} + 12 R{4,12} + 12 R{4,13} + 12 R{4,14} + 12 R{4,15}
   + 12 R{4,16} + 12 R{4,17} + 12 R{4,18} + 12 R{4,19} + 12 R{4,20}
   + 12 R{4,21} + 12 R{4,22} + 12 R{4,23} + 12 R{4,24} + 12 R{4,25}
   + 12 R{4,26} + 12 R{4,28} + 12 R{4,29} + 12 R{4,30} + 12 R{4,31}
   + 12 R{4,32} + 12 R{4,33} + 12 R{4,34} + 12 R{4,35} + 12 R{4,37}
   + 12 R{4,38} + 12 R{4,39} + 12 R{4,40} + 12 R{4,42} + 12 R{4,43} <= 12
 R2_10: 8 R{0,9} + 8 R{2,13} + 8 R{2,17} + 8 R{6,1} + 8 R{6,2} + 8 R{6,3}
   + 8 R{6,4} + 8 R{6,5} + 8 R{6,6} + 8 R{6,8} + 8 R{6,10} + 8 R{6,12}
   + 8 R{6,13} + 8 R{6,16} + 8 R{6,17} + 8 R{6,22} + 8 R{6,24} + 8 R{6,26}
   + 8 R{6,28} + 8 R{6,31} + 8 R{6,32} + 8 R{6,38} <= 8
 R2_11: 15 R{0,15} + 15 R{3,24} + 15 R{3,30} + 15 R{6,30} + 15 R{6,33}
   + 15 R{6,39} <= 15
 R2_12: <= 0
 R2_13: <= 0
 R2_14: <= 0
 R2_15: 11 R{0,0} + 11 R{0,1} + 11 R{0,2} + 11 R{0,7} + 11 R{4,1}
   + 11 R{4,2} + 11 R{4,4} + 11 R{4,8} + 11 R{4,10} + 11 R{4,12}
   + 11 R{4,14} + 11 R{4,17} + 11 R{4,19} + 11 R{4,21} + 11 R{4,23}
   + 11 R{4,29} + 11 R{4,30} + 11 R{4,31} + 11 R{4,32} + 11 R{4,36}
   + 11 R{4,38} + 11 R{4,39} + 11 R{4,41} + 11 R{4,42} <= 11
 R2_16: 5 R{0,9} + 5 R{0,14} + 5 R{2,12} + 5 R{2,13} + 5 R{2,15}
   + 5 R{2,18} + 5 R{4,12} + 5 R{4,14} + 5 R{4,25} + 5 R{4,27} + 5 R{4,31}
   + 5 R{4,32} + 5 R{4,34} + 5 R{4,41} <= 5
 R2_17: 11 R{1,14} + 11 R{1,22} + 11 R{1,23} <= 11
 R2_18: 5 R{1,24} <= 5
 R2_19: 11 R{0,6} + 11 R{0,8} + 11 R{0,10} + 11 R{0,11} + 11 R{0,12}
   + 11 R{0,13} + 11 R{0,16} + 11 R{0,17} + 11 R{0,18} + 11 R{0,20}
   + 11 R{0,21} + 11 R{0,22} + 11 R{4,1} + 11 R{4,2} + 11 R{4,3}
   + 11 R{4,5} + 11 R{4,8} + 11 R{4,10} + 11 R{4,12} + 11 R{4,14}
   + 11 R{4,15} + 11 R{4,16} + 11 R{4,17} + 11 R{4,18} + 11 R{4,21}
   + 11 R{4,22} + 11 R{4,23} + 11 R{4,26} + 11 R{4,27} + 11 R{4,36}
   + 11 R{4,42} + 11 R{6,17} <= 11
 R2_20: 13 R{0,5} + 13 R{1,4} + 13 R{1,24} + 13 R{2,5} + 13 R{3,1}
   + 13 R{3,2} + 13 R{3,3} + 13 R{3,4} + 13 R{3,5} + 13 R{3,6} + 13 R{3,7}
   + 13 R{3,8} + 13 R{3,9} + 13 R{3,11} + 13 R{3,13} + 13 R{3,15}
   + 13 R{3,16} + 13 R{3,19} + 13 R{3,21} + 13 R{3,22} + 13 R{3,23}
   + 13 R{3,24} + 13 R{3,29} + 13 R{3,30} + 13 R{5,2} + 13 R{6,39} <= 13
 R2_21: <= 0
 R2_22: 10 R{1,24} + 10 R{3,24} + 10 R{4,42} + 10 R{6,30} + 10 R{6,33}
   + 10 R{6,39} <= 10
 R2_23: 14 R{0,1} + 14 R{0,2} + 14 R{0,9} + 14 R{2,0} + 14 R{2,1}
   + 14 R{2,6} + 14 R{2,7} + 14 R{2,9} + 14 R{2,10} + 14 R{2,12}
   + 14 R{2,14} + 14 R{2,15} + 14 R{2,16} + 14 R{2,17} + 14 R{2,18}
   + 14 R{2,20} + 14 R{3,15} + 14 R{4,5} + 14 R{4,16} + 14 R{6,2}
   + 14 R{6,3} + 14 R{6,5} + 14 R{6,8} + 14 R{6,10} + 14 R{6,12}
   + 14 R{6,13} + 14 R{6,15} + 14 R{6,29} + 14 R{6,34} <= 14
 R2_24: <= 10
 R2_25: 13 R{1,14} + 13 R{1,22} + 13 R{1,23} + 13 R{1,24} + 13 R{3,24}
   + 13 R{3,27} + 13 R{3,30} + 13 R{4,1} + 13 R{4,2} + 13 R{4,3}
   + 13 R{4,4} + 13 R{4,5} + 13 R{4,6} + 13 R{4,7} + 13 R{4,8} + 13 R{4,9}
   + 13 R{4,10} + 13 R{4,11} + 13 R{4,12} + 13 R{4,13} + 13 R{4,14}
   + 13 R{4,15} + 13 R{4,16} + 13 R{4,17} + 13 R{4,18} + 13 R{4,19}
   + 13 R{4,20} + 13 R{4,22} + 13 R{4,23} + 13 R{4,24} + 13 R{4,25}
   + 13 R{4,26} + 13 R{4,27} + 13 R{4,28} + 13 R{4,29} + 13 R{4,30}
   + 13 R{4,31} + 13 R{4,32} + 13 R{4,33} + 13 R{4,34} + 13 R{4,35}
   + 13 R{4,36} + 13 R{4,37} + 13 R{4,38} + 13 R{4,39} + 13 R{4,43} <= 13
 R2_26: 6 R{0,16} + 6 R{1,1} + 6 R{1,2} + 6 R{1,3} + 6 R{1,5} + 6 R{1,6}
   + 6 R{1,10} + 6 R{1,17} + 6 R{1,19} + 6 R{3,24} + 6 R{5,4} + 6 R{5,7}
   + 6 R{5,8} + 6 R{5,9} + 6 R{5,10} + 6 R{5,13} + 6 R{5,14} + 6 R{5,16}
   + 6 R{5,17} <= 6
 R2_27: 5 R{1,3} + 5 R{1,4} + 5 R{1,5} + 5 R{1,6} + 5 R{1,7} + 5 R{1,8}
   + 5 R{1,9} + 5 R{1,10} + 5 R{1,11} + 5 R{1,12} + 5 R{1,13} + 5 R{1,14}
   + 5 R{1,16} + 5 R{1,18} + 5 R{1,20} + 5 R{1,22} + 5 R{1,23} + 5 R{3,10}
   + 5 R{4,6} + 5 R{4,9} + 5 R{4,11} + 5 R{4,25} + 5 R{4,28} + 5 R{4,37}
   + 5 R{4,40} + 5 R{4,41} + 5 R{6,36} + 5 R{6,37} <= 5
 R2_28: <= 0
 R2_29: <= 0
 R2_30: <= 0
 R2_31: 6 R{6,1} + 6 R{6,2} + 6 R{6,4} + 6 R{6,5} + 6 R{6,6} + 6 R{6,7}
   + 6 R{6,8} + 6 R{6,10} + 6 R{6,11} + 6 R{6,12} + 6 R{6,15} + 6 R{6,17}
   + 6 R{6,18} + 6 R{6,19} + 6 R{6,22} + 6 R{6,23} + 6 R{6,24} + 6 R{6,25}
   + 6 R{6,26} + 6 R{6,27} + 6 R{6,29} + 6 R{6,31} + 6 R{6,34} + 6 R{6,38}
   <= 6
 R2_32: 7 R{0,4} + 7 R{0,5} + 7 R{0,10} + 7 R{5,3} + 7 R{5,4} + 7 R{5,5}
   + 7 R{5,6} + 7 R{5,7} + 7 R{5,8} + 7 R{5,9} + 7 R{5,14} + 7 R{5,15}
   + 7 R{5,16} + 7 R{5,18} <= 7
 R2_33: 12 R{4,41} + 12 R{5,16} + 12 R{5,18} <= 12
 R2_34: 5 R{1,14} + 5 R{1,22} + 5 R{1,24} + 5 R{4,29} + 5 R{4,38}
   + 5 R{4,41} + 5 R{6,30} + 5 R{6,33} + 5 R{6,39} <= 5
 R2_35: 13 R{5,16} + 13 R{5,18} <= 13
 R2_36: <= 0
 R2_37: 5 R{5,1} + 5 R{5,3} + 5 R{5,4} + 5 R{5,5} + 5 R{5,6} + 5 R{5,7}
   + 5 R{5,8} + 5 R{5,9} + 5 R{5,10} + 5 R{5,11} + 5 R{5,12} + 5 R{5,13}
   + 5 R{5,14} + 5 R{5,15} + 5 R{5,16} + 5 R{5,17} + 5 R{5,18} <= 5
 R2_38: <= 0
 R2_39: <= 0
 R2_40: 15 R{1,22} + 15 R{1,23} + 15 R{1,24} + 15 R{2,3} + 15 R{2,4}
   + 15 R{2,5} + 15 R{2,8} + 15 R{2,19} + 15 R{5,15} + 15 R{5,17} <= 15
 R2_41: 5 R{3,2} + 5 R{3,3} + 5 R{3,4} + 5 R{3,5} + 5 R{3,6} + 5 R{3,7}
   + 5 R{3,8} + 5 R{3,9} + 5 R{3,16} + 5 R{3,19} + 5 R{3,21} + 5 R{3,22}
   + 5 R{3,24} + 5 R{3,27} + 5 R{3,29} + 5 R{4,8} + 5 R{4,28} + 5 R{4,38}
   + 5 R{4,40} + 5 R{6,38} <= 5
 R2_42: 4 R{2,3} + 4 R{2,4} + 4 R{2,5} + 4 R{2,8} <= 4
 R2_43: <= 0
 R2_44: <= 0
 R2_45: <= 0
 R2_46: 9 R{2,13} + 9 R{3,15} + 9 R{3,23} + 9 R{3,27} + 9 R{4,35}
   + 9 R{6,8} + 9 R{6,10} + 9 R{6,12} + 9 R{6,13} <= 9
 R2_47: 7 R{1,1} + 7 R{1,2} + 7 R{1,3} + 7 R{1,4} + 7 R{1,7} + 7 R{1,8}
   + 7 R{1,10} + 7 R{1,11} + 7 R{1,14} + 7 R{1,17} <= 7
 R2_48: 4 R{3,15} + 4 R{3,23} + 4 R{4,1} + 4 R{4,2} + 4 R{4,3} + 4 R{4,4}
   + 4 R{4,5} + 4 R{4,6} + 4 R{4,7} + 4 R{4,8} + 4 R{4,9} + 4 R{4,10}
   + 4 R{4,12} + 4 R{4,13} + 4 R{4,14} + 4 R{4,15} + 4 R{4,16} + 4 R{4,18}
   + 4 R{4,21} + 4 R{4,23} + 4 R{4,25} + 4 R{4,27} + 4 R{4,29} + 4 R{4,30}
   + 4 R{4,31} + 4 R{4,32} + 4 R{4,34} + 4 R{4,36} + 4 R{4,37} + 4 R{4,38}
   + 4 R{4,39} + 4 R{4,41} + 4 R{4,42} + 4 R{4,43} <= 4
 R2_49: <= 0
 R2_50: <= 0
 R2_51: 11 R{4,28} + 11 R{5,16} + 11 R{5,18} <= 11
 R2_52: 10 R{3,27} + 10 R{4,28} + 10 R{4,43} <= 10
 R2_53: 13 R{4,1} + 13 R{4,2} + 13 R{4,3} + 13 R{4,4} + 13 R{4,5}
   + 13 R{4,6} + 13 R{4,7} + 13 R{4,8} + 13 R{4,9} + 13 R{4,10}
   + 13 R{4,11} + 13 R{4,12} + 13 R{4,13} + 13 R{4,14} + 13 R{4,16}
   + 13 R{4,17} + 13 R{4,18} + 13 R{4,19} + 13 R{4,20} + 13 R{4,21}
   + 13 R{4,22} + 13 R{4,23} + 13 R{4,24} + 13 R{4,25} + 13 R{4,26}
   + 13 R{4,27} + 13 R{4,29} + 13 R{4,30} + 13 R{4,31} + 13 R{4,32}
   + 13 R{4,33} + 13 R{4,34} + 13 R{4,35} + 13 R{4,36} + 13 R{4,37}
   + 13 R{4,39} + 13 R{4,40} + 13 R{4,42} + 13 R{4,43} <= 13
 R2_54: 9 R{1,24} + 9 R{3,1} + 9 R{3,2} + 9 R{3,3} + 9 R{3,4} + 9 R{3,5}
   + 9 R{3,6} + 9 R{3,7} + 9 R{3,8} + 9 R{3,9} + 9 R{3,10} + 9 R{3,11}
   + 9 R{3,12} + 9 R{3,13} + 9 R{3,14} + 9 R{3,15} + 9 R{3,16} + 9 R{3,17}
   + 9 R{3,18} + 9 R{3,19} + 9 R{3,21} + 9 R{3,22} + 9 R{3,23} + 9 R{3,24}
   + 9 R{3,25} + 9 R{3,26} + 9 R{3,27} + 9 R{3,28} + 9 R{3,29} + 9 R{3,30}
   <= 9
 R2_55: 8 R{3,28} <= 8
 R2_56: 6 R{2,0} + 6 R{2,1} + 6 R{2,14} + 6 R{2,17} + 6 R{2,21} + 6 R{4,15}
   + 6 R{4,18} + 6 R{6,2} + 6 R{6,3} + 6 R{6,5} + 6 R{6,8} + 6 R{6,9}
   + 6 R{6,14} + 6 R{6,15} + 6 R{6,16} + 6 R{6,17} + 6 R{6,21} + 6 R{6,28}
   + 6 R{6,29} + 6 R{6,30} + 6 R{6,32} + 6 R{6,33} + 6 R{6,34} + 6 R{6,35}
   + 6 R{6,36} + 6 R{6,38} <= 6
 R2_57: <= 0
 R2_58: 15 R{3,30} <= 15
 R2_59: 10 R{1,23} + 10 R{3,9} + 10 R{3,12} + 10 R{3,14} + 10 R{3,15}
   + 10 R{3,17} + 10 R{3,18} + 10 R{3,20} + 10 R{3,22} + 10 R{3,23}
   + 10 R{3,25} + 10 R{3,26} + 10 R{3,27} + 10 R{3,28} + 10 R{3,29}
   + 10 R{3,30} + 10 R{4,24} + 10 R{4,31} + 10 R{4,32} + 10 R{6,22}
   + 10 R{6,26} <= 10
 R2_60: <= 0
 R2_61: 9 R{2,21} + 9 R{3,15} + 9 R{3,23} + 9 R{3,24} + 9 R{4,27}
   + 9 R{4,36} + 9 R{4,41} + 9 R{6,29} + 9 R{6,34} <= 9
 R2_62: <= 0
 R2_63: <= 0
 R2_64: <= 0
 R2_65: 5 R{2,0} + 5 R{2,1} + 5 R{2,6} + 5 R{2,9} + 5 R{2,10} + 5 R{2,11}
   + 5 R{2,17} + 5 R{2,21} + 5 R{3,27} + 5 R{6,1} + 5 R{6,2} + 5 R{6,3}
   + 5 R{6,4} + 5 R{6,5} + 5 R{6,6} + 5 R{6,7} + 5 R{6,9} + 5 R{6,10}
   + 5 R{6,11} + 5 R{6,12} + 5 R{6,13} + 5 R{6,14} + 5 R{6,16} + 5 R{6,17}
   + 5 R{6,18} + 5 R{6,19} + 5 R{6,20} + 5 R{6,21} + 5 R{6,22} + 5 R{6,23}
   + 5 R{6,24} + 5 R{6,25} + 5 R{6,26} + 5 R{6,27} + 5 R{6,28} + 5 R{6,30}
   + 5 R{6,31} + 5 R{6,32} + 5 R{6,33} + 5 R{6,35} + 5 R{6,36} + 5 R{6,38}
   <= 5
 R2_66: <= 7
 R2_67: 3 R{0,1} + 3 R{0,2} + 3 R{0,7} + 3 R{0,9} + 3 R{0,14} + 3 R{0,15}
   + 3 R{2,0} + 3 R{2,1} + 3 R{2,6} + 3 R{2,7} + 3 R{2,9} + 3 R{2,10}
   + 3 R{2,11} + 3 R{2,12} + 3 R{2,13} + 3 R{2,14} + 3 R{2,15} + 3 R{2,16}
   + 3 R{2,17} + 3 R{2,18} + 3 R{2,20} <= 3
 R2_68: 6 R{4,15} + 6 R{4,21} <= 6
 R2_69: 7 R{0,12} + 7 R{0,21} + 7 R{4,1} + 7 R{4,2} + 7 R{4,3} + 7 R{4,4}
   + 7 R{4,5} + 7 R{4,6} + 7 R{4,7} + 7 R{4,8} + 7 R{4,9} + 7 R{4,10}
   + 7 R{4,11} + 7 R{4,12} + 7 R{4,13} + 7 R{4,14} + 7 R{4,15} + 7 R{4,16}
   + 7 R{4,17} + 7 R{4,18} + 7 R{4,19} + 7 R{4,20} + 7 R{4,21} + 7 R{4,22}
   + 7 R{4,23} + 7 R{4,24} + 7 R{4,25} + 7 R{4,26} + 7 R{4,27} + 7 R{4,29}
   + 7 R{4,30} + 7 R{4,31} + 7 R{4,32} + 7 R{4,33} + 7 R{4,34} + 7 R{4,35}
   + 7 R{4,36} + 7 R{4,38} + 7 R{4,39} + 7 R{4,40} + 7 R{4,42} + 7 R{4,43}
   + 7 R{5,15} + 7 R{5,17} <= 7
 R2_70: 11 R{6,1} + 11 R{6,2} + 11 R{6,3} + 11 R{6,4} + 11 R{6,5}
   + 11 R{6,6} + 11 R{6,7} + 11 R{6,8} + 11 R{6,9} + 11 R{6,10}
   + 11 R{6,11} + 11 R{6,12} + 11 R{6,13} + 11 R{6,14} + 11 R{6,15}
   + 11 R{6,16} + 11 R{6,17} + 11 R{6,18} + 11 R{6,19} + 11 R{6,20}
   + 11 R{6,21} + 11 R{6,22} + 11 R{6,23} + 11 R{6,24} + 11 R{6,25}
   + 11 R{6,26} + 11 R{6,27} + 11 R{6,28} + 11 R{6,29} + 11 R{6,31}
   + 11 R{6,32} + 11 R{6,34} + 11 R{6,35} + 11 R{6,36} + 11 R{6,37} <= 11
 R2_71: 7 R{1,12} + 7 R{1,13} + 7 R{1,15} + 7 R{3,1} + 7 R{3,2} + 7 R{3,3}
   + 7 R{3,4} + 7 R{3,5} + 7 R{3,6} + 7 R{3,8} + 7 R{3,11} + 7 R{3,12}
   + 7 R{3,13} + 7 R{3,14} + 7 R{3,15} + 7 R{3,16} + 7 R{3,17} + 7 R{3,18}
   + 7 R{3,19} + 7 R{3,20} + 7 R{3,22} + 7 R{3,23} + 7 R{3,27} + 7 R{3,30}
   + 7 R{6,2} + 7 R{6,3} + 7 R{6,5} + 7 R{6,9} + 7 R{6,10} + 7 R{6,12}
   + 7 R{6,13} + 7 R{6,14} + 7 R{6,15} + 7 R{6,16} + 7 R{6,17} + 7 R{6,20}
   + 7 R{6,21} + 7 R{6,27} + 7 R{6,29} + 7 R{6,31} + 7 R{6,32} + 7 R{6,34}
   + 7 R{6,36} + 7 R{6,38} + 7 R{6,39} <= 7
 R2_72: <= 0
 R2_73: <= 0
 R2_74: 5 R{5,1} + 5 R{5,2} + 5 R{5,3} + 5 R{5,4} + 5 R{5,5} + 5 R{5,6}
   + 5 R{5,7} + 5 R{5,8} + 5 R{5,9} + 5 R{5,10} + 5 R{5,11} + 5 R{5,12}
   + 5 R{5,13} + 5 R{5,16} + 5 R{5,18} <= 5
 R2_75: 8 R{6,1} + 8 R{6,2} + 8 R{6,3} + 8 R{6,4} + 8 R{6,5} + 8 R{6,6}
   + 8 R{6,7} + 8 R{6,8} + 8 R{6,9} + 8 R{6,10} + 8 R{6,11} + 8 R{6,12}
   + 8 R{6,13} + 8 R{6,14} + 8 R{6,15} + 8 R{6,16} + 8 R{6,17} + 8 R{6,18}
   + 8 R{6,19} + 8 R{6,20} + 8 R{6,21} + 8 R{6,22} + 8 R{6,23} + 8 R{6,24}
   + 8 R{6,25} + 8 R{6,26} + 8 R{6,27} + 8 R{6,28} + 8 R{6,29} + 8 R{6,31}
   + 8 R{6,32} + 8 R{6,34} + 8 R{6,35} + 8 R{6,36} + 8 R{6,37} + 8 R{6,38}
   <= 8
 R2_76: 12 R{0,4} + 12 R{0,11} + 12 R{0,16} + 12 R{0,18} + 12 R{0,19}
   + 12 R{0,20} + 12 R{0,22} + 12 R{3,3} + 12 R{3,8} + 12 R{3,9}
   + 12 R{3,16} + 12 R{3,21} + 12 R{3,27} + 12 R{3,29} + 12 R{5,12}
   + 12 R{5,17} + 12 R{6,31} <= 12
 R2_77: 7 R{0,11} + 7 R{0,20} + 7 R{1,2} + 7 R{1,3} + 7 R{1,4} + 7 R{1,5}
   + 7 R{1,6} + 7 R{1,7} + 7 R{1,8} + 7 R{1,9} + 7 R{1,11} + 7 R{1,12}
   + 7 R{1,13} + 7 R{1,14} + 7 R{1,15} + 7 R{1,16} + 7 R{1,17} + 7 R{1,19}
   + 7 R{1,20} + 7 R{1,21} + 7 R{1,22} + 7 R{1,23} + 7 R{1,24} + 7 R{2,4}
   + 7 R{2,5} + 7 R{2,8} + 7 R{2,19} + 7 R{3,25} + 7 R{3,26} + 7 R{3,28}
   + 7 R{3,29} + 7 R{4,2} + 7 R{4,12} + 7 R{4,14} + 7 R{4,16} + 7 R{4,27}
   + 7 R{4,31} + 7 R{4,37} + 7 R{4,39} + 7 R{4,41} + 7 R{4,43} + 7 R{6,3}
   + 7 R{6,9} + 7 R{6,14} + 7 R{6,16} + 7 R{6,20} + 7 R{6,21} + 7 R{6,28}
   + 7 R{6,30} + 7 R{6,32} + 7 R{6,33} + 7 R{6,35} + 7 R{6,36} + 7 R{6,37}
   <= 7
Bounds
End
